benchmarks/VRPTW/TSPTW/solution/n20w200.005.txt.solution
1 12 9 14 3 2 19 10 13 6 20 21 16 7 4 18 17 5 15 8 11 
227
